c pcminimize - minimizing a CNF with respect to propagation completeness by iterative removing of absorbed clauses.
c Petr Kucera, 2016-2021
c Version 2.7, revision 59, git hash 4910a71, date 2024-07-16 20:17:42 +0200
p cnf 566 1163
-117 -252 0
251 -252 0
252 -253 0
161 -253 0
109 -255 0
254 -255 0
255 -256 0
-161 -256 0
253 256 -257 0
257 -258 0
205 -258 0
109 -259 0
117 -259 0
-161 -259 0
259 -260 0
-205 -260 0
258 260 -261 0
214 -262 0
180 -262 0
263 -264 0
-180 -264 0
262 264 -265 0
-63 -266 0
55 -266 0
267 -268 0
-55 -268 0
266 268 -269 0
270 -271 0
5 -271 0
6 -272 0
-5 -272 0
271 272 -273 0
265 -274 0
269 -274 0
273 -274 0
-46 -274 0
274 -275 0
213 -275 0
-63 -276 0
-180 -276 0
276 -277 0
263 -277 0
277 -278 0
55 -278 0
265 -279 0
267 -279 0
279 -280 0
-55 -280 0
278 280 -281 0
-46 -282 0
270 -282 0
282 -283 0
5 -283 0
6 -285 0
284 -285 0
285 -286 0
-5 -286 0
283 286 -287 0
281 -288 0
287 -288 0
288 -289 0
-213 -289 0
275 289 -290 0
291 -292 0
43 -292 0
-62 -293 0
-43 -293 0
292 293 -294 0
88 -295 0
-134 -295 0
261 -297 0
290 -297 0
294 -297 0
295 -297 0
296 -297 0
297 -298 0
198 -298 0
88 -299 0
-117 -299 0
205 -299 0
299 -300 0
296 -300 0
300 -301 0
251 -301 0
301 -302 0
161 -302 0
254 -303 0
205 -303 0
117 -304 0
-205 -304 0
303 304 -305 0
109 -306 0
88 -306 0
251 -307 0
-88 -307 0
306 307 -308 0
308 -309 0
203 -309 0
88 -310 0
109 -310 0
310 -311 0
-203 -311 0
309 311 -312 0
305 -313 0
312 -313 0
313 -314 0
-161 -314 0
302 314 -315 0
-43 -316 0
-46 -316 0
-62 -316 0
213 -316 0
315 -317 0
269 -317 0
273 -317 0
265 -317 0
316 -317 0
317 -319 0
318 -319 0
319 -320 0
-198 -320 0
298 320 -321 0
322 -323 0
8 -323 0
82 -324 0
-8 -324 0
323 324 -325 0
321 -326 0
325 -326 0
326 -327 0
119 -327 0
8 -328 0
43 -328 0
88 -328 0
-134 -328 0
198 -328 0
-203 -328 0
322 -329 0
291 -329 0
261 -330 0
290 -330 0
328 -330 0
329 -330 0
330 -331 0
-119 -331 0
327 331 -332 0
239 -333 0
34 -333 0
334 -335 0
-34 -335 0
333 335 -336 0
336 -338 0
337 -338 0
338 -340 0
339 -340 0
340 -341 0
200 -341 0
342 -343 0
44 -343 0
-44 -344 0
343 344 -345 0
345 -346 0
-216 -346 0
346 -348 0
347 -348 0
334 -348 0
348 -349 0
-200 -349 0
341 349 -350 0
20 -351 0
-26 -351 0
28 -351 0
45 -351 0
-93 -351 0
-122 -351 0
-142 -351 0
-146 -351 0
-196 -351 0
-210 -351 0
219 -351 0
-244 -351 0
247 -351 0
249 -351 0
352 -358 0
353 -358 0
354 -358 0
355 -358 0
356 -358 0
357 -358 0
332 -359 0
350 -359 0
358 -359 0
359 -360 0
83 -360 0
352 -361 0
353 -361 0
354 -361 0
355 -361 0
356 -361 0
357 -361 0
332 -362 0
350 -362 0
361 -362 0
362 -363 0
-83 -363 0
364 -365 0
237 -369 0
152 -373 0
248 -373 0
133 -392 0
-45 -393 0
-88 -393 0
142 -393 0
210 -393 0
-237 -393 0
393 -394 0
251 -394 0
394 -395 0
93 -395 0
237 -396 0
88 -396 0
397 -398 0
-88 -398 0
396 398 -399 0
400 -401 0
142 -401 0
45 -402 0
-142 -402 0
401 402 -403 0
109 -404 0
399 -406 0
403 -406 0
404 -406 0
405 -406 0
406 -407 0
-93 -407 0
395 407 -408 0
122 -409 0
-122 -410 0
409 410 -411 0
239 -412 0
248 -412 0
411 -413 0
412 -413 0
413 -414 0
34 -414 0
334 -415 0
248 -415 0
239 -416 0
-248 -416 0
415 416 -417 0
417 -418 0
418 -419 0
122 -419 0
334 -420 0
420 -421 0
248 -421 0
239 -423 0
422 -423 0
423 -424 0
-248 -424 0
421 424 -425 0
425 -426 0
-122 -426 0
419 426 -427 0
427 -428 0
-34 -428 0
414 428 -429 0
-26 -430 0
-83 -430 0
-152 -430 0
196 -430 0
-244 -430 0
431 -434 0
432 -434 0
433 -434 0
429 -435 0
430 -435 0
434 -435 0
435 -436 0
146 -436 0
247 -437 0
152 -437 0
433 -438 0
-152 -438 0
437 438 -439 0
-26 -440 0
-28 -440 0
-83 -440 0
196 -440 0
441 -442 0
432 -442 0
429 -443 0
439 -443 0
440 -443 0
442 -443 0
443 -444 0
-146 -444 0
436 444 -445 0
-20 -446 0
-46 -446 0
-165 -446 0
203 -446 0
408 -447 0
445 -447 0
446 -447 0
447 -448 0
110 -448 0
247 -449 0
46 -449 0
433 -450 0
-46 -450 0
449 450 -451 0
-20 -452 0
-45 -452 0
-88 -452 0
142 -452 0
203 -452 0
210 -452 0
-237 -452 0
451 -453 0
452 -453 0
251 -453 0
453 -454 0
93 -454 0
451 -455 0
400 -455 0
455 -456 0
142 -456 0
45 -457 0
-46 -457 0
457 -458 0
433 -458 0
458 -459 0
-142 -459 0
456 459 -460 0
460 -461 0
210 -461 0
403 -462 0
-46 -462 0
433 -462 0
462 -463 0
-210 -463 0
461 463 -464 0
-20 -465 0
399 -466 0
465 -466 0
466 -467 0
203 -467 0
88 -468 0
237 -468 0
468 -471 0
469 -471 0
470 -471 0
471 -472 0
-203 -472 0
467 472 -473 0
464 -474 0
473 -474 0
109 -474 0
474 -475 0
-93 -475 0
454 475 -476 0
476 -477 0
-165 -478 0
196 -478 0
353 -479 0
-196 -479 0
478 479 -480 0
26 -481 0
28 -481 0
-219 -481 0
429 -483 0
480 -483 0
481 -483 0
482 -483 0
483 -484 0
83 -484 0
-219 -485 0
26 -485 0
432 -486 0
-26 -486 0
485 486 -487 0
-165 -488 0
196 -488 0
487 -489 0
429 -489 0
488 -489 0
489 -490 0
431 -490 0
490 -491 0
-83 -491 0
484 491 -492 0
-152 -493 0
-244 -493 0
477 -494 0
492 -494 0
493 -494 0
494 -495 0
146 -495 0
247 -496 0
284 -496 0
496 -497 0
152 -497 0
451 -498 0
-152 -498 0
497 498 -499 0
499 -500 0
452 -500 0
251 -500 0
500 -501 0
93 -501 0
142 -502 0
210 -502 0
247 -502 0
400 -504 0
503 -504 0
502 -505 0
504 -505 0
505 -506 0
46 -506 0
439 -507 0
403 -507 0
507 -508 0
405 -508 0
508 -509 0
-46 -509 0
506 509 -510 0
510 -511 0
473 -511 0
109 -511 0
511 -512 0
-93 -512 0
501 512 -513 0
-26 -514 0
-28 -514 0
-83 -514 0
-165 -514 0
196 -514 0
513 -515 0
429 -515 0
514 -515 0
432 -515 0
515 -516 0
441 -516 0
516 -517 0
-146 -517 0
495 517 -518 0
518 -519 0
-110 -519 0
220 -521 0
522 -523 0
-220 -523 0
525 -526 0
90 -526 0
-90 -527 0
-25 -529 0
529 -530 0
140 -530 0
531 -532 0
356 -532 0
532 -533 0
-140 -533 0
-8 -535 0
19 -535 0
-43 -535 0
44 -535 0
-55 -535 0
-62 -535 0
63 -535 0
82 -535 0
-119 -535 0
134 -535 0
-139 -535 0
-161 -535 0
-180 -535 0
183 -535 0
-198 -535 0
200 -535 0
205 -535 0
213 -535 0
214 -535 0
536 -537 0
339 -537 0
254 -537 0
520 -538 0
524 -538 0
528 -538 0
534 -538 0
537 -538 0
5 -540 0
6 -546 0
-53 -552 0
-133 -563 0
564 -565 0
-1 0
2 0
-3 0
4 0
-7 0
-9 0
-10 0
11 0
12 0
-13 0
-14 0
15 0
21 0
22 0
-23 0
24 0
-30 0
-33 0
35 0
36 0
38 0
-39 0
42 0
47 0
48 0
-49 0
50 0
52 0
-54 0
-57 0
-58 0
64 0
-65 0
-67 0
69 0
-73 0
74 0
77 0
-80 0
84 0
85 0
-86 0
-87 0
89 0
-91 0
92 0
94 0
-95 0
96 0
97 0
99 0
100 0
102 0
-103 0
105 0
-106 0
-107 0
108 0
111 0
112 0
-113 0
-114 0
-118 0
-120 0
-121 0
-123 0
-124 0
-125 0
-126 0
-128 0
129 0
130 0
131 0
-136 0
-137 0
138 0
141 0
143 0
-145 0
147 0
148 0
-151 0
-153 0
155 0
-156 0
-157 0
-162 0
-163 0
164 0
-166 0
167 0
-168 0
-169 0
170 0
-172 0
-173 0
177 0
-178 0
179 0
181 0
-182 0
-184 0
186 0
188 0
-190 0
191 0
194 0
-195 0
-197 0
-199 0
201 0
-202 0
204 0
-206 0
207 0
208 0
-209 0
-215 0
217 0
-221 0
-222 0
224 0
-225 0
-226 0
227 0
-228 0
-229 0
-230 0
232 0
233 0
-235 0
236 0
-238 0
241 0
-242 0
-565 566 0
-232 565 0
-562 563 0
-561 562 0
-557 558 0
-556 557 0
-555 556 0
68 555 0
-552 553 0
-551 553 0
-550 551 0
-548 550 0
-547 548 0
-546 547 0
60 545 0
-544 545 0
-543 544 0
-542 544 0
101 542 0
-541 542 0
-171 540 0
-78 540 0
-70 540 0
-31 540 0
-539 541 0
-536 537 0
250 535 0
246 535 0
-245 535 0
-243 535 0
234 535 0
-223 535 0
212 535 0
211 535 0
193 535 0
-189 535 0
185 535 0
-176 535 0
174 535 0
-160 535 0
-158 535 0
154 535 0
150 535 0
-149 535 0
144 535 0
135 535 0
132 535 0
-116 535 0
-104 535 0
98 535 0
-79 535 0
-76 535 0
71 535 0
-66 535 0
-59 535 0
-56 535 0
51 535 0
27 535 0
-18 535 0
-534 538 0
-533 534 0
-532 533 0
16 531 0
-140 530 0
-528 538 0
-527 528 0
-32 535 0
-526 528 0
-90 526 0
-524 538 0
-523 524 0
220 523 0
-81 522 0
-520 538 0
-519 520 0
-518 519 0
-517 518 0
-510 511 0
-187 535 0
-509 510 0
-507 508 0
-506 510 0
-504 505 0
-503 504 0
-501 513 0
-500 501 0
-499 500 0
-498 499 0
-496 497 0
-494 495 0
-493 494 0
-491 492 0
-115 540 0
-490 491 0
160 351 0
-159 351 0
-521 524 0
66 351 0
-154 351 0
-461 464 0
-150 351 0
-457 458 0
149 351 0
-144 351 0
-263 264 277 0
-6 270 272 285 546 0
-219 351 432 0
-211 351 0
116 351 0
-440 443 0
-482 483 0
-489 490 0
115 351 0
-41 535 0
-362 363 0
-309 312 0
-420 421 0
-180 262 0
-165 353 0
-416 417 0
-260 261 0
56 351 0
75 536 0
-360 364 0
-350 359 362 0
-351 359 362 0
158 351 0
-465 466 0
17 482 0
-45 351 400 402 457 0
41 351 0
40 351 0
-29 351 0
-266 269 0
-412 413 0
-253 257 0
-174 351 0
19 354 0
-495 518 0
-444 445 0
240 373 0
-530 534 0
-429 435 443 483 489 515 0
189 351 0
-347 348 0
-346 348 0
-261 297 330 0
-240 535 0
-479 480 0
109 251 0
-344 345 0
175 351 0
-258 261 0
-83 360 484 0
-329 330 0
93 351 407 475 512 0
-381 382 0
-531 532 0
-341 350 0
-549 550 0
-473 474 511 0
-535 538 0
-340 341 0
237 393 397 452 0
-339 340 537 0
216 339 346 0
-216 339 0
-337 338 0
46 274 282 284 316 446 450 457 462 509 0
140 351 533 0
-335 336 0
-198 298 328 0
-334 335 348 415 420 0
239 334 0
-342 343 0
-46 284 449 506 0
-294 297 0
146 351 444 517 0
-281 288 0
-265 274 279 317 0
-452 453 500 0
-293 294 0
-343 345 0
-398 399 0
-275 290 0
-270 271 282 0
-271 273 0
205 260 304 0
-474 475 0
-316 317 0
165 353 446 478 488 514 0
-445 447 0
198 320 535 0
-267 268 279 0
-279 280 0
-502 505 0
-63 267 535 0
-338 340 0
171 351 0
-268 269 0
-134 318 535 0
180 264 276 535 0
-88 295 299 306 310 328 396 468 0
-447 448 0
-282 283 0
-213 275 316 535 0
-283 287 0
-345 346 0
31 351 0
-259 260 0
83 363 430 440 491 514 0
-132 351 0
-373 374 0
-255 256 0
-332 359 362 0
104 351 0
-304 305 0
63 266 267 276 0
-175 535 0
-487 489 0
29 552 0
-286 287 0
203 296 311 328 472 0
-122 409 419 0
88 307 393 398 452 0
-117 254 259 304 0
-446 447 0
-516 517 0
161 256 259 314 535 0
-262 265 0
-295 297 0
-427 428 0
-454 476 0
-161 253 302 0
-311 312 0
-109 251 255 259 306 310 404 474 511 0
-560 561 0
-303 305 0
55 268 280 535 0
-492 494 0
117 252 254 299 0
-251 252 301 307 394 453 500 0
53 352 552 0
200 349 0
-414 429 0
-348 349 0
-284 285 496 0
-252 253 0
-428 429 0
-537 538 0
110 351 519 0
-203 296 309 446 452 467 0
-471 472 0
-214 262 263 535 0
-127 351 0
-277 278 0
219 432 481 485 0
-314 315 0
-325 326 0
-380 381 0
-408 447 0
-276 277 0
-400 401 455 504 0
-61 338 342 344 535 0
-368 370 0
-488 489 0
-300 301 0
-278 281 0
-545 547 0
-210 393 405 452 461 502 0
-43 292 328 0
-285 286 0
90 351 527 0
-183 357 535 0
-331 332 0
78 351 0
-287 288 0
-55 266 278 0
-359 360 0
-288 289 0
213 289 0
142 351 402 459 0
-264 265 0
157 386 560 0
-289 290 0
-391 392 0
-299 300 0
-305 313 0
37 351 0
-394 395 0
76 369 0
-290 297 330 0
-441 442 516 0
70 351 0
-505 506 0
62 291 293 316 535 0
59 351 0
-291 292 329 0
-292 294 0
-306 308 0
122 351 410 426 0
-486 487 0
34 335 347 428 0
-349 350 0
-310 311 0
-296 297 300 0
-426 427 0
-313 314 0
61 342 0
8 324 535 0
-312 313 0
139 355 535 0
-5 271 283 540 0
-317 319 0
-327 332 0
-480 483 0
-280 281 0
-135 372 0
-82 322 324 535 0
-451 453 455 498 0
82 322 0
-302 315 0
-301 302 0
-323 325 0
-98 369 0
-321 326 0
-395 408 0
-324 325 0
-407 408 0
-239 333 334 412 416 423 0
-315 317 0
-437 439 0
-326 327 0
-272 273 0
-396 399 0
-514 515 0
-119 327 0
-512 513 0
-20 351 470 0
-485 487 0
-318 319 0
-439 443 507 0
-328 330 0
119 331 535 0
-212 351 0
44 337 344 0
-411 413 0
-269 274 317 0
-405 406 508 0
-333 336 0
176 351 0
-497 499 0
-257 258 0
-436 445 0
-483 484 0
26 351 430 440 486 514 0
187 351 0
-322 323 329 0
-369 370 0
-355 358 361 0
196 351 479 0
32 351 0
-37 535 0
-40 535 0
43 293 316 535 0
210 351 405 463 0
-438 439 0
-273 274 317 0
-218 351 0
-508 509 0
-28 351 431 481 0
-397 398 0
-220 351 521 0
-62 291 0
-402 403 0
-558 559 0
223 351 0
-421 425 0
243 351 0
-364 365 0
-298 321 0
244 351 430 441 493 0
-478 480 0
245 351 0
-246 351 0
-247 351 433 437 449 496 502 0
-250 351 0
-484 492 0
-319 320 0
-53 352 0
-353 358 361 479 0
-19 354 535 0
-442 443 0
-354 358 361 0
-139 355 0
-192 539 0
-25 356 0
192 368 0
25 356 529 0
-458 459 0
-513 515 0
-356 358 361 532 0
183 357 0
-330 331 0
-357 358 361 0
-358 359 0
-538 539 0
-8 323 328 0
-361 362 0
-363 364 0
-297 298 0
-101 365 0
-511 512 0
-430 435 0
-365 367 0
-320 321 0
-27 369 0
18 366 0
-336 338 0
-386 387 0
-559 561 0
-434 435 0
-435 436 0
-110 448 0
-467 473 0
-443 444 0
-469 471 0
-385 387 0
-366 367 0
-367 368 0
-254 255 303 537 0
-205 258 299 303 535 0
-415 417 0
-308 309 0
-237 369 396 397 468 0
-241 369 543 0
-370 371 0
-248 373 412 415 421 0
-371 372 0
79 373 0
-152 373 437 497 503 0
-374 375 0
-372 374 0
-453 454 0
-185 375 0
-376 377 0
-378 380 0
-51 379 0
-256 257 0
-425 426 0
-410 411 0
-352 358 361 0
-406 407 0
218 535 0
-274 275 0
-464 474 0
-34 333 347 414 0
-529 530 0
-71 351 0
-379 380 0
-382 383 0
-383 384 0
-384 385 0
-377 378 0
159 535 0
-387 388 0
-60 389 0
-389 390 0
-390 391 0
-307 308 0
45 393 400 452 0
-142 393 401 452 456 502 0
-393 394 0
-93 395 454 501 0
-399 406 466 0
-401 403 0
-403 406 462 507 0
-404 406 0
-515 516 0
-409 411 0
-413 414 0
248 416 424 0
-417 418 0
-522 523 0
5 272 286 0
-418 419 0
-419 427 0
-72 422 0
-196 430 440 478 488 514 0
-422 423 0
-423 424 0
-525 526 0
-68 386 0
-424 425 0
231 525 0
-472 473 0
152 430 438 493 498 503 0
-456 460 0
6 270 0
28 431 440 514 0
-431 434 490 0
-432 434 442 486 515 0
247 433 0
127 535 0
-433 434 438 450 458 462 0
-375 376 0
-146 436 495 0
-244 441 0
-449 451 0
-450 451 0
214 263 0
-455 456 0
-553 554 0
-459 460 0
-554 555 0
86 379 549 0
-460 461 0
-462 463 0
-11 351 546 0
-463 464 0
-466 467 0
-388 390 0
-468 471 0
249 469 0
-470 471 0
-234 351 0
-475 476 0
-476 477 0
-477 494 0
-193 351 0
-26 481 485 0
-540 541 0
-481 483 0
